N = 29;
T = 56;
K = 2;
C = 130.0;
furnance = 3;
color = 1;
machines = [9 10];
products = [431 164 142 85 421 121 433 98 137 147 241 9 74 70 129 118 141 127 116 124 145 67 96 123 132 135 138 149 229];
MINik = [[14.0 14.0],[14.0 14.0],[14.0 14.0],[14.0 14.0],[14.0 14.0],[14.0 14.0],[14.0 14.0],[14.0 14.0],[14.0 14.0],[14.0 14.0],[14.0 14.0],[14.0 14.0],[14.0 14.0],[14.0 14.0],[14.0 14.0],[14.0 14.0],[14.0 14.0],[14.0 14.0],[14.0 14.0],[14.0 14.0],[14.0 14.0],[14.0 14.0],[14.0 14.0],[14.0 14.0],[14.0 14.0],[14.0 14.0],[14.0 14.0],[14.0 14.0],[14.0 14.0]];
MAXik = [[20.0 20.0],[20.0 0.0],[20.0 0.0],[20.0 0.0],[20.0 0.0],[20.0 0.0],[20.0 0.0],[20.0 20.0],[20.0 20.0],[20.0 20.0],[20.0 0.0],[20.0 0.0],[20.0 0.0],[20.0 0.0],[20.0 20.0],[20.0 0.0],[20.0 20.0],[20.0 20.0],[20.0 0.0],[20.0 0.0],[20.0 0.0],[20.0 20.0],[20.0 20.0],[20.0 20.0],[20.0 20.0],[20.0 20.0],[20.0 20.0],[20.0 20.0],[20.0 20.0]];
Pik = [[2.99376 2.99376],[3.6936 3.6936],[2.56608 2.56608],[1.6524 1.6524],[4.54896 4.54896],[2.916 2.916],[2.6325 2.6325],[2.77992 2.77992],[2.8188 2.8188],[3.532896 3.532896],[3.2486184000000002 3.2486184000000002],[3.402 3.402],[2.1546 2.1546],[2.97432 2.97432],[2.593296 2.593296],[2.916 2.916],[2.70864 2.70864],[2.593296 2.593296],[3.4992 3.4992],[2.42352 2.42352],[3.14928 3.14928],[2.48832 2.48832],[2.349 2.349],[2.752056 2.752056],[2.61144 2.61144],[2.8188 2.8188],[2.820096 2.820096],[2.69568 2.69568],[2.952288 2.952288]];
Dit = [[0.0 0.0 0.0 0.0 0.0 0.0 47.0 0.0 0.0 0.0 0.0 0.0 0.0 36.0 0.0 0.0 0.0 0.0 0.0 0.0 0.0 0.0 0.0 0.0 0.0 0.0 0.0 29.0 0.0 0.0 0.0 0.0 0.0 0.0 28.0 0.0 0.0 0.0 0.0 0.0 0.0 29.0 0.0 0.0 0.0 0.0 0.0 0.0 26.0 0.0 0.0 0.0 0.0 0.0 0.0 26.0],[0.0 0.0 0.0 0.0 0.0 0.0 51.0 0.0 0.0 0.0 0.0 0.0 0.0 35.0 0.0 0.0 0.0 0.0 0.0 0.0 30.0 0.0 0.0 0.0 0.0 0.0 0.0 0.0 0.0 0.0 0.0 0.0 0.0 0.0 29.0 0.0 0.0 0.0 0.0 0.0 0.0 0.0 0.0 0.0 0.0 0.0 0.0 0.0 0.0 0.0 0.0 0.0 0.0 0.0 0.0 26.0],[0.0 0.0 0.0 0.0 0.0 0.0 0.0 0.0 0.0 0.0 0.0 0.0 0.0 0.0 0.0 0.0 0.0 0.0 0.0 0.0 0.0 0.0 0.0 0.0 0.0 0.0 0.0 29.0 0.0 0.0 0.0 0.0 0.0 0.0 0.0 0.0 0.0 0.0 0.0 0.0 0.0 27.0 0.0 0.0 0.0 0.0 0.0 0.0 0.0 0.0 0.0 0.0 0.0 0.0 0.0 26.0],[0.0 0.0 0.0 0.0 0.0 0.0 0.0 0.0 0.0 0.0 0.0 0.0 0.0 26.0 0.0 0.0 0.0 0.0 0.0 0.0 0.0 0.0 0.0 0.0 0.0 0.0 0.0 0.0 0.0 0.0 0.0 0.0 0.0 0.0 0.0 0.0 0.0 0.0 0.0 0.0 0.0 0.0 0.0 0.0 0.0 0.0 0.0 0.0 26.0 0.0 0.0 0.0 0.0 0.0 0.0 0.0],[0.0 0.0 0.0 0.0 0.0 0.0 0.0 0.0 0.0 0.0 0.0 0.0 0.0 0.0 0.0 0.0 0.0 0.0 0.0 0.0 0.0 0.0 0.0 0.0 0.0 0.0 0.0 0.0 0.0 0.0 0.0 0.0 0.0 0.0 0.0 0.0 0.0 0.0 0.0 0.0 0.0 0.0 0.0 0.0 0.0 0.0 0.0 0.0 27.0 0.0 0.0 0.0 0.0 0.0 0.0 0.0],[0.0 0.0 0.0 0.0 0.0 0.0 0.0 0.0 0.0 0.0 0.0 0.0 0.0 0.0 0.0 0.0 0.0 0.0 0.0 0.0 31.0 0.0 0.0 0.0 0.0 0.0 0.0 0.0 0.0 0.0 0.0 0.0 0.0 0.0 0.0 0.0 0.0 0.0 0.0 0.0 0.0 0.0 0.0 0.0 0.0 0.0 0.0 0.0 0.0 0.0 0.0 0.0 0.0 0.0 0.0 0.0],[0.0 0.0 0.0 0.0 0.0 0.0 42.0 0.0 0.0 0.0 0.0 0.0 0.0 34.0 0.0 0.0 0.0 0.0 0.0 0.0 0.0 0.0 0.0 0.0 0.0 0.0 0.0 0.0 0.0 0.0 0.0 0.0 0.0 0.0 0.0 0.0 0.0 0.0 0.0 0.0 0.0 0.0 0.0 0.0 0.0 0.0 0.0 0.0 27.0 0.0 0.0 0.0 0.0 0.0 0.0 26.0],[0.0 0.0 0.0 0.0 0.0 0.0 0.0 0.0 0.0 0.0 0.0 0.0 0.0 36.0 0.0 0.0 0.0 0.0 0.0 0.0 30.0 0.0 0.0 0.0 0.0 0.0 0.0 29.0 0.0 0.0 0.0 0.0 0.0 0.0 27.0 0.0 0.0 0.0 0.0 0.0 0.0 27.0 0.0 0.0 0.0 0.0 0.0 0.0 0.0 0.0 0.0 0.0 0.0 0.0 0.0 26.0],[0.0 0.0 0.0 0.0 0.0 0.0 45.0 0.0 0.0 0.0 0.0 0.0 0.0 34.0 0.0 0.0 0.0 0.0 0.0 0.0 31.0 0.0 0.0 0.0 0.0 0.0 0.0 0.0 0.0 0.0 0.0 0.0 0.0 0.0 27.0 0.0 0.0 0.0 0.0 0.0 0.0 27.0 0.0 0.0 0.0 0.0 0.0 0.0 27.0 0.0 0.0 0.0 0.0 0.0 0.0 0.0],[0.0 0.0 0.0 0.0 0.0 0.0 0.0 0.0 0.0 0.0 0.0 0.0 0.0 0.0 0.0 0.0 0.0 0.0 0.0 0.0 0.0 0.0 0.0 0.0 0.0 0.0 0.0 0.0 0.0 0.0 0.0 0.0 0.0 0.0 27.0 0.0 0.0 0.0 0.0 0.0 0.0 0.0 0.0 0.0 0.0 0.0 0.0 0.0 0.0 0.0 0.0 0.0 0.0 0.0 0.0 26.0],[0.0 0.0 0.0 0.0 0.0 0.0 50.0 0.0 0.0 0.0 0.0 0.0 0.0 0.0 0.0 0.0 0.0 0.0 0.0 0.0 0.0 0.0 0.0 0.0 0.0 0.0 0.0 29.0 0.0 0.0 0.0 0.0 0.0 0.0 29.0 0.0 0.0 0.0 0.0 0.0 0.0 0.0 0.0 0.0 0.0 0.0 0.0 0.0 0.0 0.0 0.0 0.0 0.0 0.0 0.0 0.0],[0.0 0.0 0.0 0.0 0.0 0.0 51.0 0.0 0.0 0.0 0.0 0.0 0.0 33.0 0.0 0.0 0.0 0.0 0.0 0.0 0.0 0.0 0.0 0.0 0.0 0.0 0.0 0.0 0.0 0.0 0.0 0.0 0.0 0.0 0.0 0.0 0.0 0.0 0.0 0.0 0.0 0.0 0.0 0.0 0.0 0.0 0.0 0.0 0.0 0.0 0.0 0.0 0.0 0.0 0.0 0.0],[0.0 0.0 0.0 0.0 0.0 0.0 0.0 0.0 0.0 0.0 0.0 0.0 0.0 33.0 0.0 0.0 0.0 0.0 0.0 0.0 29.0 0.0 0.0 0.0 0.0 0.0 0.0 0.0 0.0 0.0 0.0 0.0 0.0 0.0 0.0 0.0 0.0 0.0 0.0 0.0 0.0 0.0 0.0 0.0 0.0 0.0 0.0 0.0 0.0 0.0 0.0 0.0 0.0 0.0 0.0 28.0],[0.0 0.0 0.0 0.0 0.0 0.0 47.0 0.0 0.0 0.0 0.0 0.0 0.0 0.0 0.0 0.0 0.0 0.0 0.0 0.0 0.0 0.0 0.0 0.0 0.0 0.0 0.0 0.0 0.0 0.0 0.0 0.0 0.0 0.0 0.0 0.0 0.0 0.0 0.0 0.0 0.0 0.0 0.0 0.0 0.0 0.0 0.0 0.0 0.0 0.0 0.0 0.0 0.0 0.0 0.0 0.0],[0.0 0.0 0.0 0.0 0.0 0.0 41.0 0.0 0.0 0.0 0.0 0.0 0.0 0.0 0.0 0.0 0.0 0.0 0.0 0.0 30.0 0.0 0.0 0.0 0.0 0.0 0.0 0.0 0.0 0.0 0.0 0.0 0.0 0.0 0.0 0.0 0.0 0.0 0.0 0.0 0.0 27.0 0.0 0.0 0.0 0.0 0.0 0.0 0.0 0.0 0.0 0.0 0.0 0.0 0.0 26.0],[0.0 0.0 0.0 0.0 0.0 0.0 0.0 0.0 0.0 0.0 0.0 0.0 0.0 0.0 0.0 0.0 0.0 0.0 0.0 0.0 0.0 0.0 0.0 0.0 0.0 0.0 0.0 0.0 0.0 0.0 0.0 0.0 0.0 0.0 0.0 0.0 0.0 0.0 0.0 0.0 0.0 27.0 0.0 0.0 0.0 0.0 0.0 0.0 26.0 0.0 0.0 0.0 0.0 0.0 0.0 0.0],[0.0 0.0 0.0 0.0 0.0 0.0 0.0 0.0 0.0 0.0 0.0 0.0 0.0 0.0 0.0 0.0 0.0 0.0 0.0 0.0 31.0 0.0 0.0 0.0 0.0 0.0 0.0 28.0 0.0 0.0 0.0 0.0 0.0 0.0 28.0 0.0 0.0 0.0 0.0 0.0 0.0 26.0 0.0 0.0 0.0 0.0 0.0 0.0 27.0 0.0 0.0 0.0 0.0 0.0 0.0 26.0],[0.0 0.0 0.0 0.0 0.0 0.0 41.0 0.0 0.0 0.0 0.0 0.0 0.0 35.0 0.0 0.0 0.0 0.0 0.0 0.0 0.0 0.0 0.0 0.0 0.0 0.0 0.0 28.0 0.0 0.0 0.0 0.0 0.0 0.0 28.0 0.0 0.0 0.0 0.0 0.0 0.0 27.0 0.0 0.0 0.0 0.0 0.0 0.0 27.0 0.0 0.0 0.0 0.0 0.0 0.0 0.0],[0.0 0.0 0.0 0.0 0.0 0.0 0.0 0.0 0.0 0.0 0.0 0.0 0.0 0.0 0.0 0.0 0.0 0.0 0.0 0.0 0.0 0.0 0.0 0.0 0.0 0.0 0.0 28.0 0.0 0.0 0.0 0.0 0.0 0.0 0.0 0.0 0.0 0.0 0.0 0.0 0.0 0.0 0.0 0.0 0.0 0.0 0.0 0.0 0.0 0.0 0.0 0.0 0.0 0.0 0.0 0.0],[0.0 0.0 0.0 0.0 0.0 0.0 0.0 0.0 0.0 0.0 0.0 0.0 0.0 0.0 0.0 0.0 0.0 0.0 0.0 0.0 30.0 0.0 0.0 0.0 0.0 0.0 0.0 0.0 0.0 0.0 0.0 0.0 0.0 0.0 28.0 0.0 0.0 0.0 0.0 0.0 0.0 0.0 0.0 0.0 0.0 0.0 0.0 0.0 26.0 0.0 0.0 0.0 0.0 0.0 0.0 0.0],[0.0 0.0 0.0 0.0 0.0 0.0 50.0 0.0 0.0 0.0 0.0 0.0 0.0 0.0 0.0 0.0 0.0 0.0 0.0 0.0 0.0 0.0 0.0 0.0 0.0 0.0 0.0 0.0 0.0 0.0 0.0 0.0 0.0 0.0 0.0 0.0 0.0 0.0 0.0 0.0 0.0 28.0 0.0 0.0 0.0 0.0 0.0 0.0 0.0 0.0 0.0 0.0 0.0 0.0 0.0 0.0],[0.0 0.0 0.0 0.0 0.0 0.0 0.0 0.0 0.0 0.0 0.0 0.0 0.0 0.0 0.0 0.0 0.0 0.0 0.0 0.0 30.0 0.0 0.0 0.0 0.0 0.0 0.0 29.0 0.0 0.0 0.0 0.0 0.0 0.0 28.0 0.0 0.0 0.0 0.0 0.0 0.0 0.0 0.0 0.0 0.0 0.0 0.0 0.0 27.0 0.0 0.0 0.0 0.0 0.0 0.0 0.0],[0.0 0.0 0.0 0.0 0.0 0.0 37.0 0.0 0.0 0.0 0.0 0.0 0.0 34.0 0.0 0.0 0.0 0.0 0.0 0.0 29.0 0.0 0.0 0.0 0.0 0.0 0.0 29.0 0.0 0.0 0.0 0.0 0.0 0.0 28.0 0.0 0.0 0.0 0.0 0.0 0.0 0.0 0.0 0.0 0.0 0.0 0.0 0.0 0.0 0.0 0.0 0.0 0.0 0.0 0.0 27.0],[0.0 0.0 0.0 0.0 0.0 0.0 0.0 0.0 0.0 0.0 0.0 0.0 0.0 0.0 0.0 0.0 0.0 0.0 0.0 0.0 0.0 0.0 0.0 0.0 0.0 0.0 0.0 30.0 0.0 0.0 0.0 0.0 0.0 0.0 0.0 0.0 0.0 0.0 0.0 0.0 0.0 27.0 0.0 0.0 0.0 0.0 0.0 0.0 0.0 0.0 0.0 0.0 0.0 0.0 0.0 0.0],[0.0 0.0 0.0 0.0 0.0 0.0 41.0 0.0 0.0 0.0 0.0 0.0 0.0 0.0 0.0 0.0 0.0 0.0 0.0 0.0 31.0 0.0 0.0 0.0 0.0 0.0 0.0 28.0 0.0 0.0 0.0 0.0 0.0 0.0 0.0 0.0 0.0 0.0 0.0 0.0 0.0 0.0 0.0 0.0 0.0 0.0 0.0 0.0 26.0 0.0 0.0 0.0 0.0 0.0 0.0 27.0],[0.0 0.0 0.0 0.0 0.0 0.0 0.0 0.0 0.0 0.0 0.0 0.0 0.0 35.0 0.0 0.0 0.0 0.0 0.0 0.0 0.0 0.0 0.0 0.0 0.0 0.0 0.0 28.0 0.0 0.0 0.0 0.0 0.0 0.0 0.0 0.0 0.0 0.0 0.0 0.0 0.0 27.0 0.0 0.0 0.0 0.0 0.0 0.0 27.0 0.0 0.0 0.0 0.0 0.0 0.0 27.0],[0.0 0.0 0.0 0.0 0.0 0.0 0.0 0.0 0.0 0.0 0.0 0.0 0.0 35.0 0.0 0.0 0.0 0.0 0.0 0.0 30.0 0.0 0.0 0.0 0.0 0.0 0.0 29.0 0.0 0.0 0.0 0.0 0.0 0.0 27.0 0.0 0.0 0.0 0.0 0.0 0.0 26.0 0.0 0.0 0.0 0.0 0.0 0.0 27.0 0.0 0.0 0.0 0.0 0.0 0.0 26.0],[0.0 0.0 0.0 0.0 0.0 0.0 0.0 0.0 0.0 0.0 0.0 0.0 0.0 34.0 0.0 0.0 0.0 0.0 0.0 0.0 30.0 0.0 0.0 0.0 0.0 0.0 0.0 28.0 0.0 0.0 0.0 0.0 0.0 0.0 27.0 0.0 0.0 0.0 0.0 0.0 0.0 27.0 0.0 0.0 0.0 0.0 0.0 0.0 0.0 0.0 0.0 0.0 0.0 0.0 0.0 0.0],[0.0 0.0 0.0 0.0 0.0 0.0 47.0 0.0 0.0 0.0 0.0 0.0 0.0 34.0 0.0 0.0 0.0 0.0 0.0 0.0 30.0 0.0 0.0 0.0 0.0 0.0 0.0 0.0 0.0 0.0 0.0 0.0 0.0 0.0 27.0 0.0 0.0 0.0 0.0 0.0 0.0 26.0 0.0 0.0 0.0 0.0 0.0 0.0 26.0 0.0 0.0 0.0 0.0 0.0 0.0 26.0]];
Sijk = [[[0.0 0.0],[13.0 1.0E9],[11.0 1.0E9],[6.0 1.0E9],[13.0 1.0E9],[8.0 1.0E9],[9.0 1.0E9],[8.0 10.0],[10.0 6.0],[9.0 9.0],[13.0 1.0E9],[13.0 1.0E9],[8.0 1.0E9],[12.0 1.0E9],[9.0 9.0],[12.0 1.0E9],[8.0 8.0],[11.0 6.0],[12.0 1.0E9],[6.0 1.0E9],[11.0 1.0E9],[6.0 9.0],[7.0 10.0],[7.0 10.0],[10.0 6.0],[7.0 6.0],[10.0 8.0],[10.0 7.0],[9.0 11.0]]
[[7.0 12.0],[0.0 0.0],[8.0 1.0E9],[4.0 1.0E9],[13.0 1.0E9],[10.0 1.0E9],[8.0 1.0E9],[7.0 11.0],[6.0 9.0],[10.0 8.0],[9.0 1.0E9],[10.0 1.0E9],[8.0 1.0E9],[7.0 1.0E9],[10.0 9.0],[7.0 1.0E9],[8.0 10.0],[7.0 8.0],[11.0 1.0E9],[7.0 1.0E9],[12.0 1.0E9],[8.0 8.0],[10.0 5.0],[7.0 9.0],[8.0 8.0],[7.0 10.0],[11.0 7.0],[8.0 10.0],[9.0 10.0]]
[[12.0 11.0],[12.0 1.0E9],[0.0 0.0],[5.0 1.0E9],[8.0 1.0E9],[7.0 1.0E9],[10.0 1.0E9],[8.0 9.0],[10.0 11.0],[11.0 12.0],[11.0 1.0E9],[7.0 1.0E9],[8.0 1.0E9],[7.0 1.0E9],[6.0 11.0],[10.0 1.0E9],[9.0 8.0],[10.0 6.0],[13.0 1.0E9],[7.0 1.0E9],[11.0 1.0E9],[7.0 6.0],[7.0 7.0],[11.0 10.0],[9.0 8.0],[10.0 7.0],[10.0 10.0],[7.0 10.0],[7.0 12.0]]
[[7.0 11.0],[11.0 1.0E9],[7.0 1.0E9],[0.0 0.0],[11.0 1.0E9],[11.0 1.0E9],[6.0 1.0E9],[8.0 8.0],[11.0 7.0],[13.0 8.0],[8.0 1.0E9],[12.0 1.0E9],[7.0 1.0E9],[12.0 1.0E9],[8.0 10.0],[12.0 1.0E9],[9.0 8.0],[7.0 6.0],[10.0 1.0E9],[7.0 1.0E9],[10.0 1.0E9],[10.0 7.0],[6.0 6.0],[12.0 8.0],[7.0 8.0],[7.0 7.0],[8.0 7.0],[7.0 8.0],[6.0 7.0]]
[[11.0 10.0],[11.0 1.0E9],[7.0 1.0E9],[5.0 1.0E9],[0.0 0.0],[7.0 1.0E9],[10.0 1.0E9],[6.0 6.0],[10.0 6.0],[8.0 12.0],[13.0 1.0E9],[10.0 1.0E9],[5.0 1.0E9],[9.0 1.0E9],[7.0 7.0],[11.0 1.0E9],[9.0 9.0],[8.0 8.0],[12.0 1.0E9],[8.0 1.0E9],[8.0 1.0E9],[10.0 6.0],[6.0 6.0],[9.0 9.0],[6.0 9.0],[8.0 9.0],[11.0 10.0],[11.0 10.0],[10.0 11.0]]
[[12.0 8.0],[10.0 1.0E9],[7.0 1.0E9],[6.0 1.0E9],[8.0 1.0E9],[0.0 0.0],[10.0 1.0E9],[8.0 7.0],[6.0 9.0],[10.0 9.0],[7.0 1.0E9],[9.0 1.0E9],[8.0 1.0E9],[9.0 1.0E9],[6.0 10.0],[11.0 1.0E9],[11.0 10.0],[8.0 8.0],[12.0 1.0E9],[6.0 1.0E9],[10.0 1.0E9],[7.0 6.0],[5.0 5.0],[7.0 7.0],[6.0 8.0],[10.0 9.0],[11.0 7.0],[8.0 9.0],[9.0 11.0]]
[[7.0 10.0],[10.0 1.0E9],[8.0 1.0E9],[7.0 1.0E9],[12.0 1.0E9],[11.0 1.0E9],[0.0 0.0],[12.0 9.0],[9.0 10.0],[10.0 7.0],[13.0 1.0E9],[7.0 1.0E9],[5.0 1.0E9],[12.0 1.0E9],[10.0 7.0],[7.0 1.0E9],[10.0 8.0],[10.0 10.0],[13.0 1.0E9],[6.0 1.0E9],[13.0 1.0E9],[6.0 6.0],[9.0 9.0],[7.0 9.0],[9.0 8.0],[11.0 10.0],[10.0 9.0],[9.0 10.0],[8.0 9.0]]
[[7.0 8.0],[11.0 1.0E9],[11.0 1.0E9],[7.0 1.0E9],[9.0 1.0E9],[11.0 1.0E9],[7.0 1.0E9],[0.0 0.0],[6.0 8.0],[12.0 7.0],[11.0 1.0E9],[13.0 1.0E9],[7.0 1.0E9],[10.0 1.0E9],[8.0 9.0],[9.0 1.0E9],[8.0 7.0],[10.0 10.0],[7.0 1.0E9],[6.0 1.0E9],[11.0 1.0E9],[6.0 9.0],[8.0 9.0],[8.0 8.0],[8.0 10.0],[7.0 9.0],[11.0 10.0],[7.0 11.0],[6.0 8.0]]
[[7.0 11.0],[12.0 1.0E9],[9.0 1.0E9],[4.0 1.0E9],[11.0 1.0E9],[10.0 1.0E9],[8.0 1.0E9],[10.0 11.0],[0.0 0.0],[10.0 13.0],[12.0 1.0E9],[12.0 1.0E9],[6.0 1.0E9],[9.0 1.0E9],[6.0 7.0],[12.0 1.0E9],[9.0 6.0],[9.0 7.0],[12.0 1.0E9],[7.0 1.0E9],[12.0 1.0E9],[7.0 8.0],[9.0 7.0],[8.0 6.0],[11.0 9.0],[11.0 8.0],[10.0 8.0],[10.0 8.0],[8.0 8.0]]
[[8.0 8.0],[10.0 1.0E9],[8.0 1.0E9],[7.0 1.0E9],[8.0 1.0E9],[10.0 1.0E9],[6.0 1.0E9],[9.0 6.0],[7.0 9.0],[0.0 0.0],[13.0 1.0E9],[13.0 1.0E9],[6.0 1.0E9],[9.0 1.0E9],[9.0 7.0],[12.0 1.0E9],[9.0 8.0],[11.0 10.0],[12.0 1.0E9],[8.0 1.0E9],[12.0 1.0E9],[7.0 10.0],[10.0 5.0],[7.0 8.0],[6.0 9.0],[12.0 8.0],[10.0 9.0],[8.0 8.0],[7.0 8.0]]
[[12.0 7.0],[11.0 1.0E9],[10.0 1.0E9],[6.0 1.0E9],[8.0 1.0E9],[7.0 1.0E9],[6.0 1.0E9],[11.0 11.0],[11.0 9.0],[10.0 9.0],[0.0 0.0],[12.0 1.0E9],[8.0 1.0E9],[12.0 1.0E9],[10.0 11.0],[7.0 1.0E9],[8.0 7.0],[7.0 8.0],[12.0 1.0E9],[8.0 1.0E9],[9.0 1.0E9],[9.0 5.0],[8.0 9.0],[8.0 6.0],[8.0 6.0],[6.0 11.0],[9.0 11.0],[11.0 8.0],[11.0 7.0]]
[[10.0 9.0],[8.0 1.0E9],[6.0 1.0E9],[5.0 1.0E9],[13.0 1.0E9],[11.0 1.0E9],[7.0 1.0E9],[7.0 8.0],[10.0 8.0],[8.0 13.0],[7.0 1.0E9],[0.0 0.0],[6.0 1.0E9],[6.0 1.0E9],[6.0 6.0],[12.0 1.0E9],[9.0 8.0],[11.0 7.0],[7.0 1.0E9],[7.0 1.0E9],[9.0 1.0E9],[9.0 10.0],[9.0 8.0],[11.0 11.0],[9.0 6.0],[7.0 6.0],[9.0 6.0],[11.0 8.0],[10.0 12.0]]
[[8.0 12.0],[12.0 1.0E9],[10.0 1.0E9],[6.0 1.0E9],[12.0 1.0E9],[8.0 1.0E9],[11.0 1.0E9],[11.0 9.0],[8.0 9.0],[13.0 8.0],[13.0 1.0E9],[7.0 1.0E9],[0.0 0.0],[12.0 1.0E9],[10.0 10.0],[10.0 1.0E9],[7.0 6.0],[7.0 7.0],[13.0 1.0E9],[9.0 1.0E9],[7.0 1.0E9],[8.0 10.0],[9.0 9.0],[6.0 6.0],[9.0 8.0],[8.0 9.0],[12.0 9.0],[7.0 11.0],[10.0 9.0]]
[[9.0 8.0],[10.0 1.0E9],[9.0 1.0E9],[5.0 1.0E9],[11.0 1.0E9],[10.0 1.0E9],[7.0 1.0E9],[9.0 11.0],[8.0 12.0],[10.0 10.0],[9.0 1.0E9],[8.0 1.0E9],[7.0 1.0E9],[0.0 0.0],[7.0 6.0],[11.0 1.0E9],[10.0 8.0],[10.0 8.0],[12.0 1.0E9],[8.0 1.0E9],[10.0 1.0E9],[9.0 8.0],[9.0 7.0],[6.0 10.0],[11.0 8.0],[11.0 8.0],[10.0 6.0],[9.0 9.0],[9.0 8.0]]
[[7.0 10.0],[9.0 1.0E9],[6.0 1.0E9],[6.0 1.0E9],[11.0 1.0E9],[10.0 1.0E9],[9.0 1.0E9],[7.0 7.0],[6.0 8.0],[9.0 12.0],[8.0 1.0E9],[12.0 1.0E9],[9.0 1.0E9],[11.0 1.0E9],[0.0 0.0],[10.0 1.0E9],[9.0 10.0],[9.0 6.0],[7.0 1.0E9],[7.0 1.0E9],[11.0 1.0E9],[9.0 7.0],[6.0 10.0],[9.0 6.0],[7.0 10.0],[8.0 7.0],[7.0 10.0],[7.0 7.0],[10.0 8.0]]
[[12.0 11.0],[12.0 1.0E9],[10.0 1.0E9],[6.0 1.0E9],[10.0 1.0E9],[10.0 1.0E9],[9.0 1.0E9],[9.0 9.0],[7.0 6.0],[8.0 11.0],[9.0 1.0E9],[9.0 1.0E9],[7.0 1.0E9],[9.0 1.0E9],[8.0 6.0],[0.0 0.0],[9.0 10.0],[8.0 10.0],[9.0 1.0E9],[10.0 1.0E9],[7.0 1.0E9],[10.0 9.0],[9.0 9.0],[7.0 7.0],[6.0 8.0],[10.0 8.0],[12.0 10.0],[6.0 11.0],[10.0 11.0]]
[[9.0 7.0],[7.0 1.0E9],[9.0 1.0E9],[6.0 1.0E9],[8.0 1.0E9],[12.0 1.0E9],[7.0 1.0E9],[7.0 8.0],[11.0 9.0],[12.0 10.0],[13.0 1.0E9],[13.0 1.0E9],[8.0 1.0E9],[8.0 1.0E9],[7.0 8.0],[8.0 1.0E9],[0.0 0.0],[8.0 8.0],[10.0 1.0E9],[8.0 1.0E9],[9.0 1.0E9],[7.0 6.0],[8.0 9.0],[9.0 10.0],[7.0 8.0],[11.0 6.0],[12.0 9.0],[7.0 9.0],[7.0 11.0]]
[[7.0 10.0],[11.0 1.0E9],[10.0 1.0E9],[7.0 1.0E9],[11.0 1.0E9],[9.0 1.0E9],[11.0 1.0E9],[9.0 9.0],[7.0 11.0],[11.0 13.0],[12.0 1.0E9],[10.0 1.0E9],[7.0 1.0E9],[9.0 1.0E9],[10.0 8.0],[7.0 1.0E9],[9.0 7.0],[0.0 0.0],[11.0 1.0E9],[9.0 1.0E9],[8.0 1.0E9],[6.0 7.0],[7.0 10.0],[9.0 8.0],[7.0 7.0],[11.0 10.0],[8.0 7.0],[6.0 11.0],[11.0 9.0]]
[[11.0 8.0],[8.0 1.0E9],[8.0 1.0E9],[5.0 1.0E9],[13.0 1.0E9],[7.0 1.0E9],[9.0 1.0E9],[8.0 8.0],[7.0 7.0],[12.0 12.0],[11.0 1.0E9],[13.0 1.0E9],[5.0 1.0E9],[12.0 1.0E9],[7.0 7.0],[12.0 1.0E9],[7.0 7.0],[7.0 6.0],[0.0 0.0],[7.0 1.0E9],[13.0 1.0E9],[8.0 6.0],[6.0 7.0],[10.0 9.0],[6.0 10.0],[9.0 7.0],[11.0 6.0],[9.0 8.0],[9.0 6.0]]
[[9.0 11.0],[8.0 1.0E9],[6.0 1.0E9],[5.0 1.0E9],[13.0 1.0E9],[8.0 1.0E9],[10.0 1.0E9],[6.0 7.0],[8.0 10.0],[11.0 9.0],[11.0 1.0E9],[11.0 1.0E9],[8.0 1.0E9],[9.0 1.0E9],[10.0 6.0],[8.0 1.0E9],[9.0 6.0],[11.0 7.0],[9.0 1.0E9],[0.0 0.0],[12.0 1.0E9],[7.0 7.0],[6.0 6.0],[9.0 11.0],[8.0 9.0],[7.0 6.0],[10.0 11.0],[10.0 10.0],[12.0 9.0]]
[[10.0 9.0],[8.0 1.0E9],[9.0 1.0E9],[5.0 1.0E9],[12.0 1.0E9],[11.0 1.0E9],[9.0 1.0E9],[6.0 10.0],[11.0 11.0],[9.0 13.0],[11.0 1.0E9],[9.0 1.0E9],[6.0 1.0E9],[10.0 1.0E9],[7.0 8.0],[7.0 1.0E9],[8.0 9.0],[6.0 9.0],[8.0 1.0E9],[9.0 1.0E9],[0.0 0.0],[10.0 10.0],[6.0 7.0],[7.0 7.0],[8.0 10.0],[7.0 11.0],[10.0 7.0],[11.0 8.0],[10.0 8.0]]
[[10.0 7.0],[8.0 1.0E9],[9.0 1.0E9],[6.0 1.0E9],[7.0 1.0E9],[12.0 1.0E9],[10.0 1.0E9],[7.0 9.0],[7.0 9.0],[10.0 12.0],[11.0 1.0E9],[9.0 1.0E9],[7.0 1.0E9],[11.0 1.0E9],[8.0 9.0],[7.0 1.0E9],[10.0 8.0],[8.0 9.0],[7.0 1.0E9],[9.0 1.0E9],[13.0 1.0E9],[0.0 0.0],[5.0 5.0],[7.0 7.0],[10.0 9.0],[11.0 9.0],[10.0 7.0],[6.0 10.0],[10.0 11.0]]
[[10.0 8.0],[9.0 1.0E9],[9.0 1.0E9],[6.0 1.0E9],[9.0 1.0E9],[9.0 1.0E9],[9.0 1.0E9],[8.0 11.0],[7.0 7.0],[7.0 9.0],[9.0 1.0E9],[12.0 1.0E9],[6.0 1.0E9],[7.0 1.0E9],[10.0 9.0],[12.0 1.0E9],[8.0 10.0],[9.0 9.0],[11.0 1.0E9],[7.0 1.0E9],[8.0 1.0E9],[9.0 8.0],[0.0 0.0],[10.0 8.0],[8.0 9.0],[8.0 11.0],[9.0 11.0],[10.0 10.0],[9.0 9.0]]
[[11.0 11.0],[13.0 1.0E9],[8.0 1.0E9],[5.0 1.0E9],[8.0 1.0E9],[7.0 1.0E9],[9.0 1.0E9],[11.0 9.0],[10.0 8.0],[13.0 10.0],[13.0 1.0E9],[12.0 1.0E9],[8.0 1.0E9],[8.0 1.0E9],[7.0 8.0],[11.0 1.0E9],[9.0 11.0],[11.0 8.0],[11.0 1.0E9],[8.0 1.0E9],[8.0 1.0E9],[10.0 6.0],[8.0 5.0],[0.0 0.0],[8.0 10.0],[6.0 7.0],[10.0 11.0],[10.0 7.0],[9.0 8.0]]
[[8.0 12.0],[12.0 1.0E9],[7.0 1.0E9],[5.0 1.0E9],[7.0 1.0E9],[8.0 1.0E9],[10.0 1.0E9],[7.0 8.0],[7.0 6.0],[13.0 8.0],[8.0 1.0E9],[7.0 1.0E9],[6.0 1.0E9],[8.0 1.0E9],[8.0 11.0],[7.0 1.0E9],[11.0 7.0],[8.0 10.0],[8.0 1.0E9],[6.0 1.0E9],[10.0 1.0E9],[8.0 7.0],[9.0 7.0],[6.0 11.0],[0.0 0.0],[10.0 9.0],[6.0 12.0],[6.0 9.0],[7.0 10.0]]
[[9.0 7.0],[9.0 1.0E9],[9.0 1.0E9],[6.0 1.0E9],[10.0 1.0E9],[11.0 1.0E9],[7.0 1.0E9],[11.0 7.0],[8.0 9.0],[12.0 12.0],[13.0 1.0E9],[9.0 1.0E9],[6.0 1.0E9],[12.0 1.0E9],[7.0 8.0],[10.0 1.0E9],[7.0 7.0],[9.0 7.0],[13.0 1.0E9],[8.0 1.0E9],[13.0 1.0E9],[7.0 7.0],[8.0 7.0],[10.0 7.0],[10.0 10.0],[0.0 0.0],[10.0 9.0],[8.0 8.0],[9.0 8.0]]
[[12.0 11.0],[13.0 1.0E9],[8.0 1.0E9],[7.0 1.0E9],[13.0 1.0E9],[6.0 1.0E9],[6.0 1.0E9],[9.0 7.0],[12.0 7.0],[13.0 10.0],[8.0 1.0E9],[9.0 1.0E9],[6.0 1.0E9],[10.0 1.0E9],[10.0 11.0],[12.0 1.0E9],[7.0 10.0],[6.0 10.0],[10.0 1.0E9],[5.0 1.0E9],[8.0 1.0E9],[9.0 7.0],[7.0 9.0],[9.0 9.0],[9.0 7.0],[7.0 7.0],[0.0 0.0],[10.0 7.0],[11.0 8.0]]
[[11.0 9.0],[13.0 1.0E9],[9.0 1.0E9],[5.0 1.0E9],[11.0 1.0E9],[11.0 1.0E9],[9.0 1.0E9],[7.0 6.0],[7.0 7.0],[9.0 12.0],[13.0 1.0E9],[8.0 1.0E9],[5.0 1.0E9],[9.0 1.0E9],[10.0 7.0],[10.0 1.0E9],[7.0 6.0],[8.0 6.0],[9.0 1.0E9],[9.0 1.0E9],[9.0 1.0E9],[7.0 9.0],[5.0 8.0],[11.0 8.0],[6.0 7.0],[11.0 6.0],[7.0 9.0],[0.0 0.0],[12.0 10.0]]
[[8.0 10.0],[10.0 1.0E9],[11.0 1.0E9],[7.0 1.0E9],[10.0 1.0E9],[9.0 1.0E9],[9.0 1.0E9],[11.0 7.0],[8.0 12.0],[12.0 12.0],[13.0 1.0E9],[12.0 1.0E9],[8.0 1.0E9],[9.0 1.0E9],[8.0 11.0],[10.0 1.0E9],[8.0 8.0],[6.0 7.0],[10.0 1.0E9],[10.0 1.0E9],[8.0 1.0E9],[6.0 10.0],[7.0 6.0],[9.0 10.0],[7.0 11.0],[7.0 10.0],[9.0 9.0],[7.0 7.0],[0.0 0.0]]];
Cijk = [[[0.0 0.0],[13.0 1.0E9],[11.0 1.0E9],[6.0 1.0E9],[13.0 1.0E9],[8.0 1.0E9],[9.0 1.0E9],[8.0 10.0],[10.0 6.0],[9.0 9.0],[13.0 1.0E9],[13.0 1.0E9],[8.0 1.0E9],[12.0 1.0E9],[9.0 9.0],[12.0 1.0E9],[8.0 8.0],[11.0 6.0],[12.0 1.0E9],[6.0 1.0E9],[11.0 1.0E9],[6.0 9.0],[7.0 10.0],[7.0 10.0],[10.0 6.0],[7.0 6.0],[10.0 8.0],[10.0 7.0],[9.0 11.0]]
[[7.0 12.0],[0.0 0.0],[8.0 1.0E9],[4.0 1.0E9],[13.0 1.0E9],[10.0 1.0E9],[8.0 1.0E9],[7.0 11.0],[6.0 9.0],[10.0 8.0],[9.0 1.0E9],[10.0 1.0E9],[8.0 1.0E9],[7.0 1.0E9],[10.0 9.0],[7.0 1.0E9],[8.0 10.0],[7.0 8.0],[11.0 1.0E9],[7.0 1.0E9],[12.0 1.0E9],[8.0 8.0],[10.0 5.0],[7.0 9.0],[8.0 8.0],[7.0 10.0],[11.0 7.0],[8.0 10.0],[9.0 10.0]]
[[12.0 11.0],[12.0 1.0E9],[0.0 0.0],[5.0 1.0E9],[8.0 1.0E9],[7.0 1.0E9],[10.0 1.0E9],[8.0 9.0],[10.0 11.0],[11.0 12.0],[11.0 1.0E9],[7.0 1.0E9],[8.0 1.0E9],[7.0 1.0E9],[6.0 11.0],[10.0 1.0E9],[9.0 8.0],[10.0 6.0],[13.0 1.0E9],[7.0 1.0E9],[11.0 1.0E9],[7.0 6.0],[7.0 7.0],[11.0 10.0],[9.0 8.0],[10.0 7.0],[10.0 10.0],[7.0 10.0],[7.0 12.0]]
[[7.0 11.0],[11.0 1.0E9],[7.0 1.0E9],[0.0 0.0],[11.0 1.0E9],[11.0 1.0E9],[6.0 1.0E9],[8.0 8.0],[11.0 7.0],[13.0 8.0],[8.0 1.0E9],[12.0 1.0E9],[7.0 1.0E9],[12.0 1.0E9],[8.0 10.0],[12.0 1.0E9],[9.0 8.0],[7.0 6.0],[10.0 1.0E9],[7.0 1.0E9],[10.0 1.0E9],[10.0 7.0],[6.0 6.0],[12.0 8.0],[7.0 8.0],[7.0 7.0],[8.0 7.0],[7.0 8.0],[6.0 7.0]]
[[11.0 10.0],[11.0 1.0E9],[7.0 1.0E9],[5.0 1.0E9],[0.0 0.0],[7.0 1.0E9],[10.0 1.0E9],[6.0 6.0],[10.0 6.0],[8.0 12.0],[13.0 1.0E9],[10.0 1.0E9],[5.0 1.0E9],[9.0 1.0E9],[7.0 7.0],[11.0 1.0E9],[9.0 9.0],[8.0 8.0],[12.0 1.0E9],[8.0 1.0E9],[8.0 1.0E9],[10.0 6.0],[6.0 6.0],[9.0 9.0],[6.0 9.0],[8.0 9.0],[11.0 10.0],[11.0 10.0],[10.0 11.0]]
[[12.0 8.0],[10.0 1.0E9],[7.0 1.0E9],[6.0 1.0E9],[8.0 1.0E9],[0.0 0.0],[10.0 1.0E9],[8.0 7.0],[6.0 9.0],[10.0 9.0],[7.0 1.0E9],[9.0 1.0E9],[8.0 1.0E9],[9.0 1.0E9],[6.0 10.0],[11.0 1.0E9],[11.0 10.0],[8.0 8.0],[12.0 1.0E9],[6.0 1.0E9],[10.0 1.0E9],[7.0 6.0],[5.0 5.0],[7.0 7.0],[6.0 8.0],[10.0 9.0],[11.0 7.0],[8.0 9.0],[9.0 11.0]]
[[7.0 10.0],[10.0 1.0E9],[8.0 1.0E9],[7.0 1.0E9],[12.0 1.0E9],[11.0 1.0E9],[0.0 0.0],[12.0 9.0],[9.0 10.0],[10.0 7.0],[13.0 1.0E9],[7.0 1.0E9],[5.0 1.0E9],[12.0 1.0E9],[10.0 7.0],[7.0 1.0E9],[10.0 8.0],[10.0 10.0],[13.0 1.0E9],[6.0 1.0E9],[13.0 1.0E9],[6.0 6.0],[9.0 9.0],[7.0 9.0],[9.0 8.0],[11.0 10.0],[10.0 9.0],[9.0 10.0],[8.0 9.0]]
[[7.0 8.0],[11.0 1.0E9],[11.0 1.0E9],[7.0 1.0E9],[9.0 1.0E9],[11.0 1.0E9],[7.0 1.0E9],[0.0 0.0],[6.0 8.0],[12.0 7.0],[11.0 1.0E9],[13.0 1.0E9],[7.0 1.0E9],[10.0 1.0E9],[8.0 9.0],[9.0 1.0E9],[8.0 7.0],[10.0 10.0],[7.0 1.0E9],[6.0 1.0E9],[11.0 1.0E9],[6.0 9.0],[8.0 9.0],[8.0 8.0],[8.0 10.0],[7.0 9.0],[11.0 10.0],[7.0 11.0],[6.0 8.0]]
[[7.0 11.0],[12.0 1.0E9],[9.0 1.0E9],[4.0 1.0E9],[11.0 1.0E9],[10.0 1.0E9],[8.0 1.0E9],[10.0 11.0],[0.0 0.0],[10.0 13.0],[12.0 1.0E9],[12.0 1.0E9],[6.0 1.0E9],[9.0 1.0E9],[6.0 7.0],[12.0 1.0E9],[9.0 6.0],[9.0 7.0],[12.0 1.0E9],[7.0 1.0E9],[12.0 1.0E9],[7.0 8.0],[9.0 7.0],[8.0 6.0],[11.0 9.0],[11.0 8.0],[10.0 8.0],[10.0 8.0],[8.0 8.0]]
[[8.0 8.0],[10.0 1.0E9],[8.0 1.0E9],[7.0 1.0E9],[8.0 1.0E9],[10.0 1.0E9],[6.0 1.0E9],[9.0 6.0],[7.0 9.0],[0.0 0.0],[13.0 1.0E9],[13.0 1.0E9],[6.0 1.0E9],[9.0 1.0E9],[9.0 7.0],[12.0 1.0E9],[9.0 8.0],[11.0 10.0],[12.0 1.0E9],[8.0 1.0E9],[12.0 1.0E9],[7.0 10.0],[10.0 5.0],[7.0 8.0],[6.0 9.0],[12.0 8.0],[10.0 9.0],[8.0 8.0],[7.0 8.0]]
[[12.0 7.0],[11.0 1.0E9],[10.0 1.0E9],[6.0 1.0E9],[8.0 1.0E9],[7.0 1.0E9],[6.0 1.0E9],[11.0 11.0],[11.0 9.0],[10.0 9.0],[0.0 0.0],[12.0 1.0E9],[8.0 1.0E9],[12.0 1.0E9],[10.0 11.0],[7.0 1.0E9],[8.0 7.0],[7.0 8.0],[12.0 1.0E9],[8.0 1.0E9],[9.0 1.0E9],[9.0 5.0],[8.0 9.0],[8.0 6.0],[8.0 6.0],[6.0 11.0],[9.0 11.0],[11.0 8.0],[11.0 7.0]]
[[10.0 9.0],[8.0 1.0E9],[6.0 1.0E9],[5.0 1.0E9],[13.0 1.0E9],[11.0 1.0E9],[7.0 1.0E9],[7.0 8.0],[10.0 8.0],[8.0 13.0],[7.0 1.0E9],[0.0 0.0],[6.0 1.0E9],[6.0 1.0E9],[6.0 6.0],[12.0 1.0E9],[9.0 8.0],[11.0 7.0],[7.0 1.0E9],[7.0 1.0E9],[9.0 1.0E9],[9.0 10.0],[9.0 8.0],[11.0 11.0],[9.0 6.0],[7.0 6.0],[9.0 6.0],[11.0 8.0],[10.0 12.0]]
[[8.0 12.0],[12.0 1.0E9],[10.0 1.0E9],[6.0 1.0E9],[12.0 1.0E9],[8.0 1.0E9],[11.0 1.0E9],[11.0 9.0],[8.0 9.0],[13.0 8.0],[13.0 1.0E9],[7.0 1.0E9],[0.0 0.0],[12.0 1.0E9],[10.0 10.0],[10.0 1.0E9],[7.0 6.0],[7.0 7.0],[13.0 1.0E9],[9.0 1.0E9],[7.0 1.0E9],[8.0 10.0],[9.0 9.0],[6.0 6.0],[9.0 8.0],[8.0 9.0],[12.0 9.0],[7.0 11.0],[10.0 9.0]]
[[9.0 8.0],[10.0 1.0E9],[9.0 1.0E9],[5.0 1.0E9],[11.0 1.0E9],[10.0 1.0E9],[7.0 1.0E9],[9.0 11.0],[8.0 12.0],[10.0 10.0],[9.0 1.0E9],[8.0 1.0E9],[7.0 1.0E9],[0.0 0.0],[7.0 6.0],[11.0 1.0E9],[10.0 8.0],[10.0 8.0],[12.0 1.0E9],[8.0 1.0E9],[10.0 1.0E9],[9.0 8.0],[9.0 7.0],[6.0 10.0],[11.0 8.0],[11.0 8.0],[10.0 6.0],[9.0 9.0],[9.0 8.0]]
[[7.0 10.0],[9.0 1.0E9],[6.0 1.0E9],[6.0 1.0E9],[11.0 1.0E9],[10.0 1.0E9],[9.0 1.0E9],[7.0 7.0],[6.0 8.0],[9.0 12.0],[8.0 1.0E9],[12.0 1.0E9],[9.0 1.0E9],[11.0 1.0E9],[0.0 0.0],[10.0 1.0E9],[9.0 10.0],[9.0 6.0],[7.0 1.0E9],[7.0 1.0E9],[11.0 1.0E9],[9.0 7.0],[6.0 10.0],[9.0 6.0],[7.0 10.0],[8.0 7.0],[7.0 10.0],[7.0 7.0],[10.0 8.0]]
[[12.0 11.0],[12.0 1.0E9],[10.0 1.0E9],[6.0 1.0E9],[10.0 1.0E9],[10.0 1.0E9],[9.0 1.0E9],[9.0 9.0],[7.0 6.0],[8.0 11.0],[9.0 1.0E9],[9.0 1.0E9],[7.0 1.0E9],[9.0 1.0E9],[8.0 6.0],[0.0 0.0],[9.0 10.0],[8.0 10.0],[9.0 1.0E9],[10.0 1.0E9],[7.0 1.0E9],[10.0 9.0],[9.0 9.0],[7.0 7.0],[6.0 8.0],[10.0 8.0],[12.0 10.0],[6.0 11.0],[10.0 11.0]]
[[9.0 7.0],[7.0 1.0E9],[9.0 1.0E9],[6.0 1.0E9],[8.0 1.0E9],[12.0 1.0E9],[7.0 1.0E9],[7.0 8.0],[11.0 9.0],[12.0 10.0],[13.0 1.0E9],[13.0 1.0E9],[8.0 1.0E9],[8.0 1.0E9],[7.0 8.0],[8.0 1.0E9],[0.0 0.0],[8.0 8.0],[10.0 1.0E9],[8.0 1.0E9],[9.0 1.0E9],[7.0 6.0],[8.0 9.0],[9.0 10.0],[7.0 8.0],[11.0 6.0],[12.0 9.0],[7.0 9.0],[7.0 11.0]]
[[7.0 10.0],[11.0 1.0E9],[10.0 1.0E9],[7.0 1.0E9],[11.0 1.0E9],[9.0 1.0E9],[11.0 1.0E9],[9.0 9.0],[7.0 11.0],[11.0 13.0],[12.0 1.0E9],[10.0 1.0E9],[7.0 1.0E9],[9.0 1.0E9],[10.0 8.0],[7.0 1.0E9],[9.0 7.0],[0.0 0.0],[11.0 1.0E9],[9.0 1.0E9],[8.0 1.0E9],[6.0 7.0],[7.0 10.0],[9.0 8.0],[7.0 7.0],[11.0 10.0],[8.0 7.0],[6.0 11.0],[11.0 9.0]]
[[11.0 8.0],[8.0 1.0E9],[8.0 1.0E9],[5.0 1.0E9],[13.0 1.0E9],[7.0 1.0E9],[9.0 1.0E9],[8.0 8.0],[7.0 7.0],[12.0 12.0],[11.0 1.0E9],[13.0 1.0E9],[5.0 1.0E9],[12.0 1.0E9],[7.0 7.0],[12.0 1.0E9],[7.0 7.0],[7.0 6.0],[0.0 0.0],[7.0 1.0E9],[13.0 1.0E9],[8.0 6.0],[6.0 7.0],[10.0 9.0],[6.0 10.0],[9.0 7.0],[11.0 6.0],[9.0 8.0],[9.0 6.0]]
[[9.0 11.0],[8.0 1.0E9],[6.0 1.0E9],[5.0 1.0E9],[13.0 1.0E9],[8.0 1.0E9],[10.0 1.0E9],[6.0 7.0],[8.0 10.0],[11.0 9.0],[11.0 1.0E9],[11.0 1.0E9],[8.0 1.0E9],[9.0 1.0E9],[10.0 6.0],[8.0 1.0E9],[9.0 6.0],[11.0 7.0],[9.0 1.0E9],[0.0 0.0],[12.0 1.0E9],[7.0 7.0],[6.0 6.0],[9.0 11.0],[8.0 9.0],[7.0 6.0],[10.0 11.0],[10.0 10.0],[12.0 9.0]]
[[10.0 9.0],[8.0 1.0E9],[9.0 1.0E9],[5.0 1.0E9],[12.0 1.0E9],[11.0 1.0E9],[9.0 1.0E9],[6.0 10.0],[11.0 11.0],[9.0 13.0],[11.0 1.0E9],[9.0 1.0E9],[6.0 1.0E9],[10.0 1.0E9],[7.0 8.0],[7.0 1.0E9],[8.0 9.0],[6.0 9.0],[8.0 1.0E9],[9.0 1.0E9],[0.0 0.0],[10.0 10.0],[6.0 7.0],[7.0 7.0],[8.0 10.0],[7.0 11.0],[10.0 7.0],[11.0 8.0],[10.0 8.0]]
[[10.0 7.0],[8.0 1.0E9],[9.0 1.0E9],[6.0 1.0E9],[7.0 1.0E9],[12.0 1.0E9],[10.0 1.0E9],[7.0 9.0],[7.0 9.0],[10.0 12.0],[11.0 1.0E9],[9.0 1.0E9],[7.0 1.0E9],[11.0 1.0E9],[8.0 9.0],[7.0 1.0E9],[10.0 8.0],[8.0 9.0],[7.0 1.0E9],[9.0 1.0E9],[13.0 1.0E9],[0.0 0.0],[5.0 5.0],[7.0 7.0],[10.0 9.0],[11.0 9.0],[10.0 7.0],[6.0 10.0],[10.0 11.0]]
[[10.0 8.0],[9.0 1.0E9],[9.0 1.0E9],[6.0 1.0E9],[9.0 1.0E9],[9.0 1.0E9],[9.0 1.0E9],[8.0 11.0],[7.0 7.0],[7.0 9.0],[9.0 1.0E9],[12.0 1.0E9],[6.0 1.0E9],[7.0 1.0E9],[10.0 9.0],[12.0 1.0E9],[8.0 10.0],[9.0 9.0],[11.0 1.0E9],[7.0 1.0E9],[8.0 1.0E9],[9.0 8.0],[0.0 0.0],[10.0 8.0],[8.0 9.0],[8.0 11.0],[9.0 11.0],[10.0 10.0],[9.0 9.0]]
[[11.0 11.0],[13.0 1.0E9],[8.0 1.0E9],[5.0 1.0E9],[8.0 1.0E9],[7.0 1.0E9],[9.0 1.0E9],[11.0 9.0],[10.0 8.0],[13.0 10.0],[13.0 1.0E9],[12.0 1.0E9],[8.0 1.0E9],[8.0 1.0E9],[7.0 8.0],[11.0 1.0E9],[9.0 11.0],[11.0 8.0],[11.0 1.0E9],[8.0 1.0E9],[8.0 1.0E9],[10.0 6.0],[8.0 5.0],[0.0 0.0],[8.0 10.0],[6.0 7.0],[10.0 11.0],[10.0 7.0],[9.0 8.0]]
[[8.0 12.0],[12.0 1.0E9],[7.0 1.0E9],[5.0 1.0E9],[7.0 1.0E9],[8.0 1.0E9],[10.0 1.0E9],[7.0 8.0],[7.0 6.0],[13.0 8.0],[8.0 1.0E9],[7.0 1.0E9],[6.0 1.0E9],[8.0 1.0E9],[8.0 11.0],[7.0 1.0E9],[11.0 7.0],[8.0 10.0],[8.0 1.0E9],[6.0 1.0E9],[10.0 1.0E9],[8.0 7.0],[9.0 7.0],[6.0 11.0],[0.0 0.0],[10.0 9.0],[6.0 12.0],[6.0 9.0],[7.0 10.0]]
[[9.0 7.0],[9.0 1.0E9],[9.0 1.0E9],[6.0 1.0E9],[10.0 1.0E9],[11.0 1.0E9],[7.0 1.0E9],[11.0 7.0],[8.0 9.0],[12.0 12.0],[13.0 1.0E9],[9.0 1.0E9],[6.0 1.0E9],[12.0 1.0E9],[7.0 8.0],[10.0 1.0E9],[7.0 7.0],[9.0 7.0],[13.0 1.0E9],[8.0 1.0E9],[13.0 1.0E9],[7.0 7.0],[8.0 7.0],[10.0 7.0],[10.0 10.0],[0.0 0.0],[10.0 9.0],[8.0 8.0],[9.0 8.0]]
[[12.0 11.0],[13.0 1.0E9],[8.0 1.0E9],[7.0 1.0E9],[13.0 1.0E9],[6.0 1.0E9],[6.0 1.0E9],[9.0 7.0],[12.0 7.0],[13.0 10.0],[8.0 1.0E9],[9.0 1.0E9],[6.0 1.0E9],[10.0 1.0E9],[10.0 11.0],[12.0 1.0E9],[7.0 10.0],[6.0 10.0],[10.0 1.0E9],[5.0 1.0E9],[8.0 1.0E9],[9.0 7.0],[7.0 9.0],[9.0 9.0],[9.0 7.0],[7.0 7.0],[0.0 0.0],[10.0 7.0],[11.0 8.0]]
[[11.0 9.0],[13.0 1.0E9],[9.0 1.0E9],[5.0 1.0E9],[11.0 1.0E9],[11.0 1.0E9],[9.0 1.0E9],[7.0 6.0],[7.0 7.0],[9.0 12.0],[13.0 1.0E9],[8.0 1.0E9],[5.0 1.0E9],[9.0 1.0E9],[10.0 7.0],[10.0 1.0E9],[7.0 6.0],[8.0 6.0],[9.0 1.0E9],[9.0 1.0E9],[9.0 1.0E9],[7.0 9.0],[5.0 8.0],[11.0 8.0],[6.0 7.0],[11.0 6.0],[7.0 9.0],[0.0 0.0],[12.0 10.0]]
[[8.0 10.0],[10.0 1.0E9],[11.0 1.0E9],[7.0 1.0E9],[10.0 1.0E9],[9.0 1.0E9],[9.0 1.0E9],[11.0 7.0],[8.0 12.0],[12.0 12.0],[13.0 1.0E9],[12.0 1.0E9],[8.0 1.0E9],[9.0 1.0E9],[8.0 11.0],[10.0 1.0E9],[8.0 8.0],[6.0 7.0],[10.0 1.0E9],[10.0 1.0E9],[8.0 1.0E9],[6.0 10.0],[7.0 6.0],[9.0 10.0],[7.0 11.0],[7.0 10.0],[9.0 9.0],[7.0 7.0],[0.0 0.0]]];
Hi = [0.2 0.2 0.2 0.2 0.2 0.2 0.2 0.2 0.2 0.2 0.2 0.2 0.2 0.2 0.2 0.2 0.2 0.2 0.2 0.2 0.2 0.2 0.2 0.2 0.2 0.2 0.2 0.2 0.2];
